\ENCODING=ISO-8859-1
\Problem name: GAPinst

Minimize
 obj1: z
Subject To
 z0: z - 10 x1 - 11 x2 - 12 x3 - 13 x4 - 14 x5 - 15 x6 - 16 x7 - 17 x8 >= 0
 c1: 48 x1 + 47 x2 + 46 x3 + 45 x4 + 44 x5 + 43 x6 + 42 x7 + 41 x8 <= 160
 B2: z >= 0
 B3: z - 22 x1 - 24 x2 - 26 x3 - 28 x4 - 30 x5 - 32 x6 - 34 x7 - 36 x8 >= 232
Bounds
 0 <= x1 <= 1
 0 <= x2 <= 1
 0 <= x3 <= 1
 0 <= x4 <= 1
 0 <= x5 <= 1
 0 <= x6 <= 1
 0 <= x7 <= 1
 0 <= x8 <= 1
Binaries
 x1  x2  x3  x4  x5  x6  x7  x8 
End
